150 7009
1 87 34 76 73 48 63 30 84 7 8 89 96 124 146 26 56 83 75 18 142 85 65 132 137 50 55 58 141 81 110 29 86 135 70 108 102 114 99 19 2 37 9 28 6 42 47 120 139 40 53 24 12 67 23 38 32 131 77 122 14 80 72 49 147 144 145 136 112 64 21 78 15 133 134 138 46 92 54 90 25 20 51 109 43 116 101 41 57 39 118 127 69 36 61 11 148 130 60 66 17 140 117 27 129 31 123 74 13 106 91 119 68 128 44 71 45 115 150 4 104 22 125 149 62 3 113 10 94 88 121 79 59 16 111 105 33 52 126 93 35 97 143 100 5 107 95 82 103 98 
